100 500 600
9 8
10 8
9 13
13 12
12 13
12 10
8 11
9 8
13 8
9 10
11 10
9 9
10 8
12 13
11 10
10 12
8 13
13 9
12 13
13 10
8 12
9 8
13 12
10 12
12 11
10 11
9 11
12 13
11 9
9 10
9 12
11 10
11 8
10 13
11 11
13 8
10 13
12 9
8 8
10 9
12 10
12 13
9 13
13 12
12 8
12 10
13 8
9 11
10 10
10 12
11 13
8 9
13 9
12 12
8 11
9 9
8 8
13 10
12 12
10 13
9 9
11 10
11 9
9 10
10 11
8 8
10 8
12 8
13 11
10 13
13 8
10 10
11 11
9 12
12 10
8 13
13 11
13 10
8 9
9 13
8 13
13 11
8 13
12 10
12 13
13 9
8 9
11 13
9 12
13 10
10 9
9 10
13 13
10 9
8 8
9 11
9 13
12 12
10 8
8 12
